p tw 86 198
0 1
0 58
0 59
1 41
1 60
1 71
1 80
2 3
2 4
2 21
2 22
2 23
3 4
3 62
3 63
3 64
3 65
4 66
5 6
5 7
5 15
5 59
5 80
6 7
6 41
6 42
6 43
7 38
7 47
7 60
8 9
8 23
8 44
8 65
8 66
9 64
10 11
10 12
10 13
10 32
10 36
11 12
11 13
11 67
11 73
12 13
12 34
12 51
12 52
12 53
13 84
14 15
14 58
14 71
15 59
15 80
16 17
16 39
16 50
16 57
17 49
17 79
18 19
18 20
18 28
18 29
19 20
19 42
19 47
20 46
21 22
21 23
21 36
21 53
21 72
22 23
22 45
23 44
23 65
23 66
24 25
24 78
25 29
25 46
25 82
26 27
26 75
27 28
27 37
28 29
28 37
29 46
29 82
30 31
30 81
31 68
31 70
31 77
31 85
32 33
32 34
32 35
32 36
33 34
33 35
33 72
33 79
34 35
34 51
34 52
34 53
35 78
35 82
36 53
36 72
37 54
37 75
37 81
37 85
38 39
38 40
38 47
38 60
39 40
39 50
39 57
40 61
41 42
41 43
41 60
41 71
41 80
42 43
42 47
43 56
43 76
43 77
44 45
44 65
44 66
46 82
47 60
48 49
48 50
48 62
48 83
49 50
49 79
50 57
51 52
51 53
51 67
52 53
52 73
52 84
53 72
54 55
54 56
54 75
54 81
54 85
55 56
55 70
56 76
56 77
57 61
58 59
58 71
59 80
60 71
60 80
62 63
62 64
62 65
62 83
63 64
63 65
63 74
64 65
65 66
67 73
68 69
68 70
68 77
68 85
69 76
70 77
70 85
71 80
72 79
73 84
74 83
75 81
75 85
76 77
77 85
78 82
81 85
